
Value of objective function: 5

Actual values of the variables:
A                               0
B                               1
C                               1

Actual values of the constraints:
R1                              2
